\ENCODING=ISO-8859-1
\Problem name: example8x3

Minimize
 obj: 10 x1 + 11 x2 + 12 x3 + 13 x4 + 14 x5 + 15 x6 + 16 x7 + 17 x8 + 22 x9
      + 24 x10 + 26 x11 + 28 x12 + 30 x13 + 32 x14 + 34 x15 + 36 x16 + 60 x17
      + 64 x18 + 68 x19 + 72 x20 + 76 x21 + 80 x22 + 84 x23 + 88 x24
      + [ 12 x1 * x10 + 8 x1 * x11 + 8 x1 * x14 + 40 x1 * x15 + 20 x1 * x16
      + 24 x1 * x18 + 16 x1 * x19 + 16 x1 * x22 + 80 x1 * x23 + 40 x1 * x24
      + 12 x2 * x9 + 16 x2 * x11 + 40 x2 * x13 + 16 x2 * x14 + 24 x2 * x17
      + 32 x2 * x19 + 80 x2 * x21 + 32 x2 * x22 + 8 x3 * x9 + 16 x3 * x10
      + 12 x3 * x12 + 16 x3 * x13 + 20 x3 * x15 + 20 x3 * x16 + 16 x3 * x17
      + 32 x3 * x18 + 24 x3 * x20 + 32 x3 * x21 + 40 x3 * x23 + 40 x3 * x24
      + 12 x4 * x11 + 8 x4 * x16 + 24 x4 * x19 + 16 x4 * x24 + 40 x5 * x10
      + 16 x5 * x11 + 20 x5 * x14 + 8 x5 * x15 + 80 x5 * x18 + 32 x5 * x19
      + 40 x5 * x22 + 16 x5 * x23 + 8 x6 * x9 + 16 x6 * x10 + 20 x6 * x13
      + 4 x6 * x15 + 8 x6 * x16 + 16 x6 * x17 + 32 x6 * x18 + 40 x6 * x21
      + 8 x6 * x23 + 16 x6 * x24 + 40 x7 * x9 + 20 x7 * x11 + 8 x7 * x13
      + 4 x7 * x14 + 40 x7 * x16 + 80 x7 * x17 + 40 x7 * x19 + 16 x7 * x21
      + 8 x7 * x22 + 80 x7 * x24 + 20 x8 * x9 + 20 x8 * x11 + 8 x8 * x12
      + 8 x8 * x14 + 40 x8 * x15 + 40 x8 * x17 + 40 x8 * x19 + 16 x8 * x20
      + 16 x8 * x22 + 80 x8 * x23 + 12 x9 * x18 + 8 x9 * x19 + 8 x9 * x22
      + 40 x9 * x23 + 20 x9 * x24 + 12 x10 * x17 + 16 x10 * x19 + 40 x10 * x21
      + 16 x10 * x22 + 8 x11 * x17 + 16 x11 * x18 + 12 x11 * x20 + 16 x11 * x21
      + 20 x11 * x23 + 20 x11 * x24 + 12 x12 * x19 + 8 x12 * x24 + 40 x13 * x18
      + 16 x13 * x19 + 20 x13 * x22 + 8 x13 * x23 + 8 x14 * x17 + 16 x14 * x18
      + 20 x14 * x21 + 4 x14 * x23 + 8 x14 * x24 + 40 x15 * x17 + 20 x15 * x19
      + 8 x15 * x21 + 4 x15 * x22 + 40 x15 * x24 + 20 x16 * x17 + 20 x16 * x19
      + 8 x16 * x20 + 8 x16 * x22 + 40 x16 * x23 ] / 2
Subject To
 c1:  x1 + x9 + x17  = 1
 c2:  x2 + x10 + x18  = 1
 c3:  x3 + x11 + x19  = 1
 c4:  x4 + x12 + x20  = 1
 c5:  x5 + x13 + x21  = 1
 c6:  x6 + x14 + x22  = 1
 c7:  x7 + x15 + x23  = 1
 c8:  x8 + x16 + x24  = 1
 c9:  48 x1 + 47 x2 + 46 x3 + 45 x4 + 44 x5 + 43 x6 + 42 x7 + 41 x8 <= 160
 c10: 38 x9 + 37 x10 + 36 x11 + 35 x12 + 34 x13 + 33 x14 + 32 x15 + 31 x16
      <= 90
 c11: 28 x17 + 27 x18 + 26 x19 + 25 x20 + 24 x21 + 23 x22 + 22 x23 + 21 x24
      <= 70
Bounds
 0 <= x1 <= 1
 0 <= x2 <= 1
 0 <= x3 <= 1
 0 <= x4 <= 1
 0 <= x5 <= 1
 0 <= x6 <= 1
 0 <= x7 <= 1
 0 <= x8 <= 1
 0 <= x9 <= 1
 0 <= x10 <= 1
 0 <= x11 <= 1
 0 <= x12 <= 1
 0 <= x13 <= 1
 0 <= x14 <= 1
 0 <= x15 <= 1
 0 <= x16 <= 1
 0 <= x17 <= 1
 0 <= x18 <= 1
 0 <= x19 <= 1
 0 <= x20 <= 1
 0 <= x21 <= 1
 0 <= x22 <= 1
 0 <= x23 <= 1
 0 <= x24 <= 1
Generals
 x1  x2  x3  x4  x5  x6  x7  x8  x9  x10  x11  x12  x13  x14  x15  x16  x17 
 x18  x19  x20  x21  x22  x23  x24 
End
